words_hard_train/621.qaiger
aag 138 24 0 1 114
2
4
8
14
16
20
24
26
30
40
48
68
86
100
114
130
142
186
198
208
220
236
250
266
277
6 3 5
10 8 4
12 7 11
18 15 17
22 18 21
28 25 27
32 28 31
34 22 32
36 35 5
38 13 37
42 38 41
44 39 40
46 43 45
50 37 48
52 50 2
54 49 2
56 54 36
58 55 37
60 57 59
62 19 5
64 33 5
66 63 65
70 66 68
72 70 20
74 69 20
76 66 74
78 67 75
80 77 79
82 14 5
84 83 65
88 84 86
90 88 16
92 87 16
94 85 92
96 84 93
98 95 97
102 100 14
104 102 65
106 101 14
108 107 64
110 106 65
112 109 111
116 114 30
118 29 5
120 116 119
122 115 30
124 123 118
126 122 119
128 125 127
132 130 24
134 24 26
136 118 135
138 26 4
140 137 139
144 142 26
146 140 145
148 141 144
150 147 149
152 132 150
154 153 149
156 129 155
158 121 157
160 113 159
162 105 161
164 98 163
166 91 165
168 81 167
170 73 169
172 60 171
174 53 173
176 47 174
178 46 175
180 177 179
182 80 166
184 183 169
188 185 186
190 184 187
192 189 191
194 128 154
196 195 157
200 197 198
202 196 199
204 201 203
206 131 24
210 207 208
212 206 209
214 211 213
216 133 151
218 217 153
222 218 221
224 219 220
226 223 225
228 214 226
230 204 228
232 112 158
234 233 161
238 235 236
240 230 239
242 234 237
244 240 243
246 99 162
248 247 165
252 248 250
254 249 251
256 253 255
258 244 257
260 192 258
262 61 170
264 263 173
268 264 266
270 265 267
272 269 271
274 260 273
276 181 274
i0 2 y2[6]
i1 2 y2[7]
i2 2 y1[7]
i3 2 y2[3]
i4 2 y2[4]
i5 2 y2[5]
i6 2 y2[0]
i7 2 y2[1]
i8 2 y2[2]
i9 1 x2[7]
i10 2 y1[6]
i11 2 y1[5]
i12 2 y1[4]
i13 2 y1[3]
i14 2 y1[2]
i15 2 y1[0]
i16 2 y1[1]
i17 1 x2[5]
i18 1 x2[2]
i19 1 x2[0]
i20 1 x2[1]
i21 1 x2[3]
i22 1 x2[4]
i23 1 x2[6]
o0 bool[0]
c
simplified
  !=
    1 x2
    subtract
      and
        2 y1
        2 y2
      abs
        2 y2
