words_hard_train/621.qaiger.qdimacs
p cnf 138 343
a 99 133 104 110 20 125 118 93 0
e 1 2 3 4 5 6 7 8 9 10 11 12 13 14 15 16 17 18 19 21 22 23 24 25 26 27 28 29 30 31 32 33 34 35 36 37 38 39 40 41 42 43 44 45 46 47 48 49 50 51 52 53 54 55 56 57 58 59 60 61 62 63 64 65 66 67 68 69 70 71 72 73 74 75 76 77 78 79 80 81 82 83 84 85 86 87 88 89 90 91 92 94 95 96 97 98 100 101 102 103 105 106 107 108 109 111 112 113 114 115 116 117 119 120 121 122 123 124 126 127 128 129 130 131 132 134 135 136 137 138 0
1 2 3 0
-1 -3 0
-2 -3 0
-4 -2 5 0
4 -5 0
2 -5 0
3 5 6 0
-3 -6 0
-5 -6 0
7 8 9 0
-7 -9 0
-8 -9 0
-9 10 11 0
9 -11 0
-10 -11 0
12 13 14 0
-12 -14 0
-13 -14 0
-14 15 16 0
14 -16 0
-15 -16 0
-11 -16 17 0
11 -17 0
16 -17 0
17 2 18 0
-17 -18 0
-2 -18 0
6 18 19 0
-6 -19 0
-18 -19 0
-19 20 21 0
19 -21 0
-20 -21 0
19 -20 22 0
-19 -22 0
20 -22 0
21 22 23 0
-21 -23 0
-22 -23 0
18 -24 25 0
-18 -25 0
24 -25 0
-25 -1 26 0
25 -26 0
1 -26 0
24 -1 27 0
-24 -27 0
1 -27 0
-27 -18 28 0
27 -28 0
18 -28 0
27 18 29 0
-27 -29 0
-18 -29 0
28 29 30 0
-28 -30 0
-29 -30 0
9 2 31 0
-9 -31 0
-2 -31 0
16 2 32 0
-16 -32 0
-2 -32 0
31 32 33 0
-31 -33 0
-32 -33 0
-33 -34 35 0
33 -35 0
34 -35 0
-35 -10 36 0
35 -36 0
10 -36 0
34 -10 37 0
-34 -37 0
10 -37 0
-33 -37 38 0
33 -38 0
37 -38 0
33 37 39 0
-33 -39 0
-37 -39 0
38 39 40 0
-38 -40 0
-39 -40 0
-7 2 41 0
7 -41 0
-2 -41 0
41 32 42 0
-41 -42 0
-32 -42 0
-42 -43 44 0
42 -44 0
43 -44 0
-44 -8 45 0
44 -45 0
8 -45 0
43 -8 46 0
-43 -46 0
8 -46 0
42 -46 47 0
-42 -47 0
46 -47 0
-42 46 48 0
42 -48 0
-46 -48 0
47 48 49 0
-47 -49 0
-48 -49 0
-50 -7 51 0
50 -51 0
7 -51 0
-51 32 52 0
51 -52 0
-32 -52 0
50 -7 53 0
-50 -53 0
7 -53 0
53 -32 54 0
-53 -54 0
32 -54 0
-53 32 55 0
53 -55 0
-32 -55 0
54 55 56 0
-54 -56 0
-55 -56 0
-57 -15 58 0
57 -58 0
15 -58 0
14 2 59 0
-14 -59 0
-2 -59 0
-58 59 60 0
58 -60 0
-59 -60 0
57 -15 61 0
-57 -61 0
15 -61 0
61 -59 62 0
-61 -62 0
59 -62 0
-61 59 63 0
61 -63 0
-59 -63 0
62 63 64 0
-62 -64 0
-63 -64 0
-65 -12 66 0
65 -66 0
12 -66 0
-12 -13 67 0
12 -67 0
13 -67 0
-59 67 68 0
59 -68 0
-67 -68 0
-13 -2 69 0
13 -69 0
2 -69 0
68 69 70 0
-68 -70 0
-69 -70 0
-71 -13 72 0
71 -72 0
13 -72 0
-70 72 73 0
70 -73 0
-72 -73 0
70 -72 74 0
-70 -74 0
72 -74 0
73 74 75 0
-73 -75 0
-74 -75 0
-66 -75 76 0
66 -76 0
75 -76 0
76 74 77 0
-76 -77 0
-74 -77 0
64 77 78 0
-64 -78 0
-77 -78 0
60 78 79 0
-60 -79 0
-78 -79 0
56 79 80 0
-56 -80 0
-79 -80 0
52 80 81 0
-52 -81 0
-80 -81 0
-49 81 82 0
49 -82 0
-81 -82 0
45 82 83 0
-45 -83 0
-82 -83 0
40 83 84 0
-40 -84 0
-83 -84 0
36 84 85 0
-36 -85 0
-84 -85 0
-30 85 86 0
30 -86 0
-85 -86 0
26 86 87 0
-26 -87 0
-86 -87 0
23 -87 88 0
-23 -88 0
87 -88 0
-23 87 89 0
23 -89 0
-87 -89 0
88 89 90 0
-88 -90 0
-89 -90 0
-40 -83 91 0
40 -91 0
83 -91 0
91 84 92 0
-91 -92 0
-84 -92 0
92 -93 94 0
-92 -94 0
93 -94 0
-92 93 95 0
92 -95 0
-93 -95 0
94 95 96 0
-94 -96 0
-95 -96 0
-64 -77 97 0
64 -97 0
77 -97 0
97 78 98 0
-97 -98 0
-78 -98 0
98 -99 100 0
-98 -100 0
99 -100 0
-98 99 101 0
98 -101 0
-99 -101 0
100 101 102 0
-100 -102 0
-101 -102 0
65 -12 103 0
-65 -103 0
12 -103 0
103 -104 105 0
-103 -105 0
104 -105 0
-103 104 106 0
103 -106 0
-104 -106 0
105 106 107 0
-105 -107 0
-106 -107 0
66 75 108 0
-66 -108 0
-75 -108 0
108 76 109 0
-108 -109 0
-76 -109 0
-109 110 111 0
109 -111 0
-110 -111 0
109 -110 112 0
-109 -112 0
110 -112 0
111 112 113 0
-111 -113 0
-112 -113 0
-107 -113 114 0
107 -114 0
113 -114 0
-102 -114 115 0
102 -115 0
114 -115 0
-56 -79 116 0
56 -116 0
79 -116 0
116 80 117 0
-116 -117 0
-80 -117 0
117 -118 119 0
-117 -119 0
118 -119 0
-115 119 120 0
115 -120 0
-119 -120 0
-117 118 121 0
117 -121 0
-118 -121 0
-120 121 122 0
120 -122 0
-121 -122 0
49 -81 123 0
-49 -123 0
81 -123 0
123 82 124 0
-123 -124 0
-82 -124 0
-124 -125 126 0
124 -126 0
125 -126 0
124 125 127 0
-124 -127 0
-125 -127 0
126 127 128 0
-126 -128 0
-127 -128 0
-122 128 129 0
122 -129 0
-128 -129 0
-96 -129 130 0
96 -130 0
129 -130 0
30 -85 131 0
-30 -131 0
85 -131 0
131 86 132 0
-131 -132 0
-86 -132 0
-132 -133 134 0
132 -134 0
133 -134 0
132 133 135 0
-132 -135 0
-133 -135 0
134 135 136 0
-134 -136 0
-135 -136 0
-130 136 137 0
130 -137 0
-136 -137 0
90 -137 138 0
-90 -138 0
137 -138 0
-138 0
